p tw 175 198
1 2
2 88
3 14
4 5
5 6
6 7
7 8
7 15
8 9
8 11
9 10
10 11
11 12
12 13
13 15
14 25
15 16
16 17
16 71
17 18
18 19
19 20
20 21
21 22
22 23
22 28
23 24
24 26
25 36
25 117
26 27
27 18
28 29
29 30
30 31
31 32
32 33
33 34
34 35
35 37
36 47
37 38
38 39
39 40
40 41
41 42
42 43
43 44
44 45
45 46
46 48
47 58
48 49
49 50
50 51
51 52
52 53
53 54
54 55
55 56
56 57
57 59
58 69
59 60
60 61
60 68
61 62
62 63
63 64
64 65
65 66
66 67
67 68
68 70
69 80
69 108
70 71
71 72
72 73
73 74
74 75
75 76
76 77
76 174
77 78
78 170
79 81
80 86
81 82
82 83
83 160
84 85
86 87
86 112
87 89
88 99
89 90
89 112
90 91
91 92
91 112
92 93
93 94
93 112
94 95
95 96
95 112
96 97
97 98
97 112
98 100
99 110
100 101
100 112
101 102
102 103
102 112
103 104
104 105
104 112
105 106
106 107
106 112
107 125
108 109
109 111
110 121
111 125
112 113
113 114
114 115
115 116
116 125
117 118
118 119
118 122
119 120
120 125
121 132
122 123
123 124
124 125
125 126
126 127
127 110
128 129
129 130
130 131
130 135
131 133
132 143
132 128
133 134
134 156
135 136
136 137
137 138
138 139
139 140
140 141
141 142
142 144
143 154
144 145
145 146
145 156
146 147
147 148
148 149
149 150
150 151
151 152
152 153
153 155
154 165
155 156
156 157
157 158
157 160
158 159
159 160
160 161
161 162
162 163
163 164
164 166
165 3
166 167
167 168
168 169
169 170
170 171
171 172
172 173
173 174
173 79
174 175
175 4
